1931571
0,161,66,38,42,60,187,180,172,166,138,12,184,176,9,217,85,159,151,135,92,157,179,128,227,145,149,185,170,169,89,20,152,108,141,87,11,102,223,3,216,32,202,8,67,88,182,41,50,208,205,229,37,133,10,28,64,83,113,190,78,131,130,123,121,118,29,46,57,212,58,167,171,44,51,181,84,79,91,189,177,156,134,126,162,22,21,19,204,106,100,165,90,115,160,191,178,35,34,111,132,154,228,195,49,150,93,61,168,74,36,86,77,80,101,107,27,26,39,129,54,33,143,136,59,14,219,4,65,98,99,53,17,55,174,52,81,18,164,56,69,200,199,75,211,226,124,110,45,224,119,72,225,2,192,94,24,158,7,207,188,30,97,109,125,142,163,194,197,5,186,76,105,148,210,175,213,214,183,103,203,220,1,114,120,40,140,201,215,104,218,23,221,127,122,68,198,206,62,6,209,95,25,71,31,139,82,73,70,48,15,116,144,155,43,47,16,137,13,193,96,63,222,173,153,196,147,112,146,117,0